c Generated by SAT Solver
p cnf 2003 341
101 102 103 0
201 202 203 0
301 302 303 0
401 402 403 0
501 502 503 0
601 602 603 0
701 702 703 0
801 802 803 0
901 902 903 0
1001 1002 1003 0
1101 1102 1103 0
1201 1202 1203 0
1301 1302 1303 0
1401 1402 1403 0
1501 1502 1503 0
1601 1602 1603 0
1701 1702 1703 0
1801 1802 1803 0
1901 1902 1903 0
2001 2002 2003 0
-101 -102 0
-101 -103 0
-102 -103 0
-201 -202 0
-201 -203 0
-202 -203 0
-301 -302 0
-301 -303 0
-302 -303 0
-401 -402 0
-401 -403 0
-402 -403 0
-501 -502 0
-501 -503 0
-502 -503 0
-601 -602 0
-601 -603 0
-602 -603 0
-701 -702 0
-701 -703 0
-702 -703 0
-801 -802 0
-801 -803 0
-802 -803 0
-901 -902 0
-901 -903 0
-902 -903 0
-1001 -1002 0
-1001 -1003 0
-1002 -1003 0
-1101 -1102 0
-1101 -1103 0
-1102 -1103 0
-1201 -1202 0
-1201 -1203 0
-1202 -1203 0
-1301 -1302 0
-1301 -1303 0
-1302 -1303 0
-1401 -1402 0
-1401 -1403 0
-1402 -1403 0
-1501 -1502 0
-1501 -1503 0
-1502 -1503 0
-1601 -1602 0
-1601 -1603 0
-1602 -1603 0
-1701 -1702 0
-1701 -1703 0
-1702 -1703 0
-1801 -1802 0
-1801 -1803 0
-1802 -1803 0
-1901 -1902 0
-1901 -1903 0
-1902 -1903 0
-2001 -2002 0
-2001 -2003 0
-2002 -2003 0
-101 -201 0
-102 -202 0
-103 -203 0
-101 -601 0
-102 -602 0
-103 -603 0
-101 -701 0
-102 -702 0
-103 -703 0
-101 -901 0
-102 -902 0
-103 -903 0
-101 -1101 0
-102 -1102 0
-103 -1103 0
-101 -1401 0
-102 -1402 0
-103 -1403 0
-101 -1601 0
-102 -1602 0
-103 -1603 0
-101 -1701 0
-102 -1702 0
-103 -1703 0
-101 -1801 0
-102 -1802 0
-103 -1803 0
-101 -1901 0
-102 -1902 0
-103 -1903 0
-101 -2001 0
-102 -2002 0
-103 -2003 0
-201 -601 0
-202 -602 0
-203 -603 0
-201 -801 0
-202 -802 0
-203 -803 0
-201 -1301 0
-202 -1302 0
-203 -1303 0
-201 -1801 0
-202 -1802 0
-203 -1803 0
-201 -1901 0
-202 -1902 0
-203 -1903 0
-301 -501 0
-302 -502 0
-303 -503 0
-301 -601 0
-302 -602 0
-303 -603 0
-301 -701 0
-302 -702 0
-303 -703 0
-301 -801 0
-302 -802 0
-303 -803 0
-301 -901 0
-302 -902 0
-303 -903 0
-301 -1001 0
-302 -1002 0
-303 -1003 0
-301 -1101 0
-302 -1102 0
-303 -1103 0
-301 -1301 0
-302 -1302 0
-303 -1303 0
-301 -1401 0
-302 -1402 0
-303 -1403 0
-301 -1501 0
-302 -1502 0
-303 -1503 0
-301 -1801 0
-302 -1802 0
-303 -1803 0
-301 -1901 0
-302 -1902 0
-303 -1903 0
-401 -901 0
-402 -902 0
-403 -903 0
-401 -1201 0
-402 -1202 0
-403 -1203 0
-401 -1301 0
-402 -1302 0
-403 -1303 0
-401 -1401 0
-402 -1402 0
-403 -1403 0
-401 -1501 0
-402 -1502 0
-403 -1503 0
-401 -1601 0
-402 -1602 0
-403 -1603 0
-401 -1801 0
-402 -1802 0
-403 -1803 0
-401 -2001 0
-402 -2002 0
-403 -2003 0
-501 -801 0
-502 -802 0
-503 -803 0
-501 -1001 0
-502 -1002 0
-503 -1003 0
-501 -1801 0
-502 -1802 0
-503 -1803 0
-501 -2001 0
-502 -2002 0
-503 -2003 0
-601 -801 0
-602 -802 0
-603 -803 0
-601 -901 0
-602 -902 0
-603 -903 0
-601 -1001 0
-602 -1002 0
-603 -1003 0
-601 -1301 0
-602 -1302 0
-603 -1303 0
-601 -1401 0
-602 -1402 0
-603 -1403 0
-601 -1501 0
-602 -1502 0
-603 -1503 0
-601 -1701 0
-602 -1702 0
-603 -1703 0
-601 -1801 0
-602 -1802 0
-603 -1803 0
-701 -901 0
-702 -902 0
-703 -903 0
-701 -1001 0
-702 -1002 0
-703 -1003 0
-701 -1101 0
-702 -1102 0
-703 -1103 0
-701 -1301 0
-702 -1302 0
-703 -1303 0
-701 -1401 0
-702 -1402 0
-703 -1403 0
-701 -1601 0
-702 -1602 0
-703 -1603 0
-801 -901 0
-802 -902 0
-803 -903 0
-801 -1101 0
-802 -1102 0
-803 -1103 0
-801 -1601 0
-802 -1602 0
-803 -1603 0
-801 -1801 0
-802 -1802 0
-803 -1803 0
-901 -1001 0
-902 -1002 0
-903 -1003 0
-901 -1101 0
-902 -1102 0
-903 -1103 0
-901 -1401 0
-902 -1402 0
-903 -1403 0
-901 -1501 0
-902 -1502 0
-903 -1503 0
-901 -2001 0
-902 -2002 0
-903 -2003 0
-1001 -1101 0
-1002 -1102 0
-1003 -1103 0
-1001 -1301 0
-1002 -1302 0
-1003 -1303 0
-1001 -1501 0
-1002 -1502 0
-1003 -1503 0
-1001 -1701 0
-1002 -1702 0
-1003 -1703 0
-1001 -1901 0
-1002 -1902 0
-1003 -1903 0
-1001 -2001 0
-1002 -2002 0
-1003 -2003 0
-1101 -1301 0
-1102 -1302 0
-1103 -1303 0
-1101 -1401 0
-1102 -1402 0
-1103 -1403 0
-1101 -1801 0
-1102 -1802 0
-1103 -1803 0
-1101 -1901 0
-1102 -1902 0
-1103 -1903 0
-1201 -1501 0
-1202 -1502 0
-1203 -1503 0
-1201 -1701 0
-1202 -1702 0
-1203 -1703 0
-1201 -1901 0
-1202 -1902 0
-1203 -1903 0
-1201 -2001 0
-1202 -2002 0
-1203 -2003 0
-1301 -1601 0
-1302 -1602 0
-1303 -1603 0
-1401 -1801 0
-1402 -1802 0
-1403 -1803 0
-1401 -1901 0
-1402 -1902 0
-1403 -1903 0
-1501 -1601 0
-1502 -1602 0
-1503 -1603 0
-1501 -1901 0
-1502 -1902 0
-1503 -1903 0
-1601 -1701 0
-1602 -1702 0
-1603 -1703 0
-1601 -1801 0
-1602 -1802 0
-1603 -1803 0
-1601 -2001 0
-1602 -2002 0
-1603 -2003 0
-1801 -1901 0
-1802 -1902 0
-1803 -1903 0
-1801 -2001 0
-1802 -2002 0
-1803 -2003 0
